Instances/quickTest.col.dat
data;
set V := 1 2 3 4 5 6 7 8 9 10 11;
set E :=
	(1,2)
	(2,1)
	(1,4)
	(4,1)
	(1,7)
	(7,1)
	(1,9)
	(9,1)
	(2,3)
	(3,2)
	(2,6)
	(6,2)
	(2,8)
	(8,2)
	(3,5)
	(5,3)
	(3,7)
	(7,3)
	(3,10)
	(10,3)
	(4,5)
	(5,4)
	(4,6)
	(6,4)
	(4,10)
	(10,4)
	(5,8)
	(8,5)
	(5,9)
	(9,5)
	(6,11)
	(11,6)
	(7,11)
	(11,7)
	(8,11)
	(11,8)
	(9,11)
	(11,9)
	(10,11)
	(11,10);
param vertexCount := 11;
end;
